c turning on binary mode checking
c parsing input formula with 202048 variables and 780975 clauses
c finished parsing, read 16995630 bytes from proof file
c detected empty clause; start verification via backward checking
c 9603 of 780975 clauses in core                            
c 10333 of 456770 lemmas in core using 99008 resolution steps
c 0 RAT lemmas in core; 698 redundant literals in core lemmas
s VERIFIED
c verification time: 1.947 seconds
